1198.79 0
0 115 114 106 107 108 109 120 0
0 19 65 130 119 117 131 116 132 18 17 66 0
0 70 69 110 122 123 124 111 125 112 126 127 121 128 129 113 81 71 0
0 39 44 43 40 3 41 42 2 4 5 6 7 8 9 10 12 11 14 88 15 13 16 90 89 87 86 84 85 83 20 82 118 46 0
0 133 33 80 68 67 79 63 78 64 77 76 134 74 73 0
0 72 47 32 34 48 49 50 52 54 55 56 105 57 58 30 31 59 60 75 1 0
0 61 62 51 53 102 103 104 101 35 36 99 100 98 97 96 37 95 38 45 94 93 29 92 28 27 26 25 21 91 22 24 23 0